(set-logic ALL)
(declare-fun i1 () Int)
(declare-fun it1 () Int)
(declare-fun i2 () Int)
(declare-fun it2 () Int)
(declare-fun i3 () Int)
(declare-fun it3 () Int)
(declare-fun it4 () Int)
(declare-fun i4 () Int)
(declare-fun i5 () Int)
(declare-fun it5 () Int)
(declare-fun i6 () Int)
(declare-fun it6 () Int)
(declare-fun it92 () Int)
(declare-fun it444 () Int)
(declare-fun it445 () Int)
(declare-fun it446 () Int)
(declare-fun it447 () Int)
(declare-fun it448 () Int)
(declare-fun it449 () Int)
(assert (= (+ i1 (- 1)) 0))
(assert (= (+ it1 (- 2)) 0))
(assert (= (+ it2 (* i2 (- 1)) (- 1)) 0))
(assert (= (+ it3 (* i3 (- 1))) 0))
(assert (= (+ (* i4 (- 1)) it4) 0))
(assert (= (+ it5 (* i5 (- 1))) 0))
(assert (= (+ it6 (* i6 (- 1))) 0))
(assert (let ((a!1 (> (+ (+ (* it92 (- 2)) it3) 1) 0))
      (a!2 (> (+ (+ (* it92 (- 2)) it3) 2) 0)))
  (and (>= (+ (* it1 (- 1)) 2) 0)
       a!1
       a!2
       (>= (+ it1 (- 2)) 0)
       (>= (+ it92 (- 1)) 0))))
(assert (= (+ it444 (* it1 (- 1))) 0))
(assert (= (+ it445 (* it2 (- 1)) (* it92 (- 2))) 0))
(assert (= (+ it446 (* it92 2) (* it3 (- 1))) 0))
(assert (= (+ (* (exp (- 1) it92) (+ 0 it4) (+ 0 (- 1))) (+ 0 it447))
   (+ 0 0)))
(assert (= (+ (+ 0 it448) (* (exp (- 1) it92) (+ 0 it5) (+ 0 (- 1))))
   (+ 0 0)))
(assert (= (+ (* (+ 0 it92) (exp it3 2) (+ 0 (- 6)))
      (+ 0 (* it92 it3 (- 6)))
      (* (exp it92 2) (+ 0 6))
      (+ 0 (* it449 3))
      (+ 0 (* it92 (- 1)))
      (* (exp it92 3) (+ 0 (- 8)))
      (+ 0 (* it6 (- 3)))
      (* (exp it92 2) (+ 0 it3) (+ 0 12)))
   (+ 0 0)))
(assert (and (> (+ it446 (- 1)) 0)
     (>= (+ (* it444 (- 1)) 2) 0)
     (>= (+ it444 (- 2)) 0)
     (> it446 0)
     (= 2 0)))
(check-sat)
